3
Coordinates from ORCA-job job E -76.369758570852
  O       0.000000      0.000000      0.000000
  H       0.757160      0.586260      0.000000
  H      -0.757160      0.586260      0.000000
3
Coordinates from ORCA-job job E -76.369983380499
  O       0.000000     -0.004958      0.000000
  H       0.765248      0.588739      0.000000
  H      -0.765248      0.588739      0.000000
3
Coordinates from ORCA-job job E -76.369989159670
  O      -0.000000     -0.006334      0.000000
  H       0.763946      0.589427      0.000000
  H      -0.763946      0.589427      0.000000
3
Coordinates from ORCA-job job E -76.369990655124
  O       0.000000     -0.007460      0.000000
  H       0.762772      0.589990      0.000000
  H      -0.762772      0.589990      0.000000
3
Coordinates from ORCA-job job E -76.369990658903
  O      -0.000000     -0.007453      0.000000
  H       0.762770      0.589986      0.000000
  H      -0.762770      0.589986      0.000000
